50, 657
20, 20
38, 38
38, 38
22, 22
8, 8
50, 50
12, 12
18, 18
22, 22
42, 42
14, 14
50, 50
44, 44
26, 26
48, 48
8, 8
34, 34
2, 2
4, 4
28, 28
16, 16
12, 12
28, 28
8, 8
2, 2
24, 24
42, 42
14, 14
12, 12
12, 12
8, 8
34, 34
42, 42
6, 6
48, 48
16, 16
38, 38
22, 22
38, 38
40, 40
36, 36
44, 44
36, 36
32, 32
6, 6
50, 50
46, 46
32, 32
36, 36
4, 4
